1641207600
1641231000
1641294000
1641317400
1641380400
1641403800
1641466800
1641490200
1641553200
1641576600
1641812400
1641835800
1641898800
1641922200
1641985200
1642008600
1642071600
1642095000
1642158000
1642181400
1642402800
1642442400
1642503600
1642527000
1642590000
1642613400
1642676400
1642699800
1642762800
1642786200
1643022000
1643045400
1643108400
1643131800
1643194800
1643218200
1643281200
1643304600
1643367600
1643391000
1643626800
1643650200
